8240
45, 32, 1, 22, 49, 36, 35, 34, 37, 39, 40, 38, 48, 24, 46, 44, 16, 20, 50, 23, 31, 18, 3, 17, 21, 42, 2, 7, 30, 29, 47, 26, 27, 28, 13, 14, 52, 11, 51, 12, 25, 4, 6, 5, 15, 43, 33, 10, 9, 41, 8, 19
